
Value of objective function: 2.33139e+06

Actual values of the variables:
COL00100             937.344
COL00101             0
COL00102             312.226
COL00103             312.226
COL00104             0
COL00105             312.226
COL00106             312.226
COL00107             3533.33
COL00108             2566.67
COL00109             0
COL00110             800
COL00111             3544.15
COL00112             0
COL00113             0
COL00114             0
COL00115             312.226
COL00116             312.226
COL00117             710.993
COL00118             171.665
COL00119             710.993
COL00120             550.886
COL00121             0
COL00122             355.496
COL00123             355.496
COL00124             0
COL00125             355.496
COL00126             355.496
COL00127             3533.33
COL00128             2566.67
COL00129             0
COL00130             800
COL00131             4569.27
COL00132             0
COL00133             0
COL00134             355.496
COL00135             0
COL00136             355.496
COL00137             809.921
COL00138             0
COL00139             0
COL00140             0
COL00050             835.192
COL00051             1133.8
COL00052             0
COL00053             0
COL00054             0
COL00055             210.32
COL00056             210.32
COL00057             482.048
COL00058             112.85
COL00059             2365.25
COL00060             1200
COL00061             0
COL00062             241.024
COL00063             241.024
COL00064             0
COL00065             241.024
COL00066             241.024
COL00067             3439.36
COL00068             2566.67
COL00069             0
COL00070             893.967
COL00071             1856.89
COL00072             0
COL00073             0
COL00074             0
COL00075             241.024
COL00076             241.024
COL00077             547.754
COL00078             206.56
COL00079             1883.2
COL00080             1178.08
COL00081             0
COL00082             273.877
COL00083             273.877
COL00084             0
COL00085             273.877
COL00086             273.877
COL00087             3533.33
COL00088             2566.67
COL00089             0
COL00090             800
COL00091             2636.72
COL00092             0
COL00093             0
COL00094             0
COL00095             273.877
COL00096             273.877
COL00097             624.452
COL00098             236.081
COL00099             1335.44
COL00001             0
COL00002             158
COL00003             158
COL00004             0
COL00005             158
COL00006             158
COL00007             0
COL00008             2504.37
COL00009             1430
COL00010             1365.63
COL00011             0
COL00012             0
COL00013             1600
COL00014             0
COL00015             158
COL00016             158
COL00017             375.2
COL00018             14.7
COL00019             2400
COL00020             915.227
COL00021             0
COL00022             187.6
COL00023             187.6
COL00024             0
COL00025             187.6
COL00026             187.6
COL00027             2210.88
COL00028             2566.67
COL00029             312.667
COL00030             961.678
COL00031             586.459
COL00032             0
COL00033             848.106
COL00034             0
COL00035             187.6
COL00036             187.6
COL00037             420.64
COL00038             0
COL00039             2400
COL00040             1164.02
COL00041             0
COL00042             210.32
COL00043             210.32
COL00044             0
COL00045             210.32
COL00046             210.32
COL00047             3176.57
COL00048             2566.67
COL00049             321.572

Actual values of the constraints:
r_1                  158
r_2                  158
r_3                  0
r_4                  0
r_5                  3092.96
r_6                  6900
r_7                  2795.63
r_8                  0
r_9                  0
r_10                 -92.12
r_11                 -684
r_12                 -150
r_13                 0
r_14                 0
r_15                 0
r_16                 0
r_17                 0
r_18                 6900
r_19                 1274.34
r_20                 0
r_21                 0
r_22                 0
r_23                 0
r_24                 0
r_25                 0
r_26                 -45.44
r_27                 0
r_28                 0
r_29                 0
r_30                 0
r_31                 0
r_32                 6900
r_33                 1156.76
r_34                 0
r_35                 0
r_36                 0
r_37                 0
r_38                 0
r_39                 0
r_40                 -61.408
r_41                 0
r_42                 0
r_43                 0
r_44                 0
r_45                 0
r_46                 6900
r_47                 893.967
r_48                 0
r_49                 0
r_50                 0
r_51                 0
r_52                 0
r_53                 0
r_54                 -65.7056
r_55                 0
r_56                 0
r_57                 0
r_58                 0
r_59                 0
r_60                 6900
r_61                 800
r_62                 0
r_63                 0
r_64                 0
r_65                 0
r_66                 0
r_67                 0
r_68                 -76.6979
r_69                 0
r_70                 0
r_71                 0
r_72                 0
r_73                 0
r_74                 6900
r_75                 800
r_76                 0
r_77                 0
r_78                 0
r_79                 0
r_80                 0
r_81                 0
r_82                 -86.5413
r_83                 0
r_84                 0
r_85                 0
r_86                 0
r_87                 0
r_88                 6900
r_89                 800
r_90                 0
r_91                 0
r_92                 0
r_93                 0
r_94                 0
r_95                 0
r_96                 -98.9279
